
************************************************************
 TOWR - Trajectory Optimization for Walking Robots (v1.4)
                © Alexander W. Winkler
           https://github.com/ethz-adrl/towr
************************************************************

0.520000318742596
3.541584398612406e-07
0.2
0
0
0.24
0
0
0
t
-e1
0.21
value fo cmd_return -> t -e1 0.21
next line
0.21
0.19
0.0
0.21
-0.19
0.0
-0.21
0.19
0.0
-0.21
-0.19
0.0
0.1
ee start pos x -> 0.21
ee start pos y -> 0.19
ee start pos z -> 0
ee start pos x -> 0.21
ee start pos y -> -0.19
ee start pos z -> 0
ee start pos x -> -0.21
ee start pos y -> 0.19
ee start pos z -> 0
ee start pos x -> -0.21
ee start pos y -> -0.19
ee start pos z -> 0
start pos x -> 0
start pos y -> 0
start pos z -> 0.24
goal pos x -> 0.52
goal pos y -> 3.54158e-07
goal pos z -> 0.2
ee start pos x -> 0.21
ee start pos y -> 0.19
ee start pos z -> 0
ee start pos x -> 0.21
ee start pos y -> -0.19
ee start pos z -> 0
ee start pos x -> -0.21
ee start pos y -> 0.19
ee start pos z -> 0
ee start pos x -> -0.21
ee start pos y -> -0.19
ee start pos z -> 0
SOLVER RUN TIME : 15

******************************************************************************
This program contains Ipopt, a library for large-scale nonlinear optimization.
 Ipopt is released as open source code under the Eclipse Public License (EPL).
         For more information visit http://projects.coin-or.org/Ipopt
******************************************************************************

This is Ipopt version 3.11.9, running with linear solver mumps.
NOTE: Other linear solvers might be more efficient (see Ipopt documentation).

Number of nonzeros in equality constraint Jacobian...:    11557
Number of nonzeros in inequality constraint Jacobian.:    20605
Number of nonzeros in Lagrangian Hessian.............:        0

Total number of variables............................:     1005
                     variables with only lower bounds:        0
                variables with lower and upper bounds:        0
                     variables with only upper bounds:        0
Total number of equality constraints.................:      706
Total number of inequality constraints...............:     1024
        inequality constraints with only lower bounds:      112
   inequality constraints with lower and upper bounds:      816
        inequality constraints with only upper bounds:       96

iter    objective    inf_pr   inf_du lg(mu)  ||d||  lg(rg) alpha_du alpha_pr  ls
   0  0.0000000e+00 9.71e+00 1.00e+00   0.0 0.00e+00    -  0.00e+00 0.00e+00   0
   1  0.0000000e+00 8.66e+00 3.24e+01   0.0 4.96e+00    -  4.07e-01 1.08e-01f  1
   2  0.0000000e+00 6.05e+00 5.87e+01   0.5 6.52e+00    -  9.94e-01 3.02e-01f  1
   3  0.0000000e+00 3.29e-01 1.56e+02   0.4 5.22e+00    -  6.66e-01 1.00e+00f  1
   4  0.0000000e+00 3.75e-03 7.24e+00   0.1 6.28e-01    -  9.98e-01 1.00e+00f  1
   5  0.0000000e+00 2.16e-06 1.09e+00  -5.9 2.56e-02    -  9.80e-01 1.00e+00h  1
   6  0.0000000e+00 1.13e-06 9.24e-04  -3.5 1.43e-02    -  9.99e-01 1.00e+00h  1
   7  0.0000000e+00 3.90e-11 1.43e-05  -9.5 1.50e-06    -  9.99e-01 1.00e+00h  1

Number of Iterations....: 7

                                   (scaled)                 (unscaled)
Objective...............:   0.0000000000000000e+00    0.0000000000000000e+00
Dual infeasibility......:   1.4303851760933779e-05    1.4303851760933779e-05
Constraint violation....:   1.3585268329194261e-11    3.9049652400535706e-11
Complementarity.........:   3.9022278899517791e-07    3.9022278899517791e-07
Overall NLP error.......:   1.4303851760933779e-05    1.4303851760933779e-05


Number of objective function evaluations             = 8
Number of objective gradient evaluations             = 8
Number of equality constraint evaluations            = 8
Number of inequality constraint evaluations          = 8
Number of equality constraint Jacobian evaluations   = 8
Number of inequality constraint Jacobian evaluations = 8
Number of Lagrangian Hessian evaluations             = 0
Total CPU secs in IPOPT (w/o function evaluations)   =      0.332
Total CPU secs in NLP function evaluations           =      0.479

EXIT: Optimal Solution Found.
status -> 0

************************************************************
    IFOPT - Interface to Nonlinear Optimizers (v2.0)
                © Alexander W. Winkler
           https://github.com/ethz-adrl/ifopt
************************************************************
Legend:
c - number of variables, constraints or cost terms
i - indices of this set in overall problem
v - number of [violated variable- or constraint-bounds] or [cost term value]

                                   c             i             v 
variable-sets:
   base-lin                       306        0....305[0m           0[0m
   base-ang                       306      306....611[0m           0[0m
   ee-motion_0                     35      612....646[0m           0[0m
   ee-motion_1                     35      647....681[0m           0[0m
   ee-motion_2                     35      682....716[0m           0[0m
   ee-motion_3                     35      717....751[0m           0[0m
   ee-force_0                      72      752....823[0m           0[0m
   ee-force_1                      72      824....895[0m           0[0m
   ee-force_2                      72      896....967[0m           0[0m
   ee-force_3                      72      968...1039[0m           0[0m

constraint-sets:
   terrain-ee-motion_0             13        0.....12[0m           0[0m
   terrain-ee-motion_1             13       13.....25[0m           0[0m
   terrain-ee-motion_2             13       26.....38[0m           0[0m
   terrain-ee-motion_3             13       39.....51[0m           0[0m
   dynamic                        312       52....363[0m           0[0m
   splineacc-base-lin             147      364....510[0m           0[0m
   splineacc-base-ang             147      511....657[0m           0[0m
   rangeofmotion-0                192      658....849[0m           0[0m
   rangeofmotion-1                192      850...1041[0m           0[0m
   rangeofmotion-2                192     1042...1233[0m           0[0m
   rangeofmotion-3                192     1234...1425[0m           0[0m
   force-ee-force_0                60     1426...1485[0m           0[0m
   force-ee-force_1                60     1486...1545[0m           0[0m
   force-ee-force_2                60     1546...1605[0m           0[0m
   force-ee-force_3                60     1606...1665[0m           0[0m
   swing-ee-motion_0               16     1666...1681[0m           0[0m
   swing-ee-motion_1               16     1682...1697[0m           0[0m
   swing-ee-motion_2               16     1698...1713[0m           0[0m
   swing-ee-motion_3               16     1714...1729[0m           0[0m

cost-terms:


************************************************************
 TOWR - Trajectory Optimization for Walking Robots (v1.4)
                © Alexander W. Winkler
           https://github.com/ethz-adrl/towr
************************************************************

0.9100042764299588
0.0
0.2
0.323476
-0.00993438
0.234569
-0.0174737
-0.0275164
-0.0142446
t
-e1
0.537985
value fo cmd_return -> t -e1 0.537985
next line
0.537985
0.147627
0
0.584876
-0.187948
0
0.0940098
0.177769
0
0.127975
-0.167853
0
3.757
s_vel
0.110838
0.1
-t
3.757
ee start pos x -> 0.537985
ee start pos y -> 0.147627
ee start pos z -> 0
ee start pos x -> 0.584876
ee start pos y -> -0.187948
ee start pos z -> 0
ee start pos x -> 0.0940098
ee start pos y -> 0.177769
ee start pos z -> 0
ee start pos x -> 0.127975
ee start pos y -> -0.167853
ee start pos z -> 0
start pos x -> 0.323476
start pos y -> -0.00993438
start pos z -> 0.234569
goal pos x -> 0.910004
goal pos y -> 0
goal pos z -> 0.2
ee start pos x -> 0.537985
ee start pos y -> 0.147627
ee start pos z -> 0
ee start pos x -> 0.584876
ee start pos y -> -0.187948
ee start pos z -> 0
ee start pos x -> 0.0940098
ee start pos y -> 0.177769
ee start pos z -> 0
ee start pos x -> 0.127975
ee start pos y -> -0.167853
ee start pos z -> 0
SOLVER RUN TIME : 15

******************************************************************************
This program contains Ipopt, a library for large-scale nonlinear optimization.
 Ipopt is released as open source code under the Eclipse Public License (EPL).
         For more information visit http://projects.coin-or.org/Ipopt
******************************************************************************

This is Ipopt version 3.11.9, running with linear solver mumps.
NOTE: Other linear solvers might be more efficient (see Ipopt documentation).

Number of nonzeros in equality constraint Jacobian...:    11557
Number of nonzeros in inequality constraint Jacobian.:    20605
Number of nonzeros in Lagrangian Hessian.............:        0

Total number of variables............................:     1005
                     variables with only lower bounds:        0
                variables with lower and upper bounds:        0
                     variables with only upper bounds:        0
Total number of equality constraints.................:      706
Total number of inequality constraints...............:     1024
        inequality constraints with only lower bounds:      112
   inequality constraints with lower and upper bounds:      816
        inequality constraints with only upper bounds:       96

iter    objective    inf_pr   inf_du lg(mu)  ||d||  lg(rg) alpha_du alpha_pr  ls
   0  0.0000000e+00 9.71e+00 1.00e+00   0.0 0.00e+00    -  0.00e+00 0.00e+00   0
   1  0.0000000e+00 8.72e+00 4.20e+01   0.0 4.83e+00    -  4.11e-01 1.02e-01f  1
   2  0.0000000e+00 5.28e+00 5.99e+01   0.4 6.13e+00    -  9.93e-01 3.95e-01f  1
   3  0.0000000e+00 2.25e-01 1.14e+02   0.3 4.43e+00    -  7.34e-01 1.00e+00f  1
   4  0.0000000e+00 1.45e-03 1.77e+00  -0.2 3.28e-01    -  9.96e-01 1.00e+00f  1
   5  0.0000000e+00 4.86e-07 3.12e-01  -6.2 9.55e-03    -  9.86e-01 1.00e+00h  1
   6  0.0000000e+00 1.16e-11 3.16e-03  -8.1 8.37e-05    -  9.90e-01 1.00e+00h  1
   7  0.0000000e+00 2.32e-13 9.98e-06 -10.1 1.41e-04    -  9.97e-01 1.00e+00h  1

Number of Iterations....: 7

                                   (scaled)                 (unscaled)
Objective...............:   0.0000000000000000e+00    0.0000000000000000e+00
Dual infeasibility......:   9.9752150669188521e-06    9.9752150669188521e-06
Constraint violation....:   2.3156476736119203e-13    2.3156476736119203e-13
Complementarity.........:   3.3012727054528429e-07    3.3012727054528429e-07
Overall NLP error.......:   9.9752150669188521e-06    9.9752150669188521e-06


Number of objective function evaluations             = 8
Number of objective gradient evaluations             = 8
Number of equality constraint evaluations            = 8
Number of inequality constraint evaluations          = 8
Number of equality constraint Jacobian evaluations   = 8
Number of inequality constraint Jacobian evaluations = 8
Number of Lagrangian Hessian evaluations             = 0
Total CPU secs in IPOPT (w/o function evaluations)   =      0.388
Total CPU secs in NLP function evaluations           =      0.514

EXIT: Optimal Solution Found.
status -> 0

************************************************************
    IFOPT - Interface to Nonlinear Optimizers (v2.0)
                © Alexander W. Winkler
           https://github.com/ethz-adrl/ifopt
************************************************************
Legend:
c - number of variables, constraints or cost terms
i - indices of this set in overall problem
v - number of [violated variable- or constraint-bounds] or [cost term value]

                                   c             i             v 
variable-sets:
   base-lin                       306        0....305[0m           0[0m
   base-ang                       306      306....611[0m           0[0m
   ee-motion_0                     35      612....646[0m           0[0m
   ee-motion_1                     35      647....681[0m           0[0m
   ee-motion_2                     35      682....716[0m           0[0m
   ee-motion_3                     35      717....751[0m           0[0m
   ee-force_0                      72      752....823[0m           0[0m
   ee-force_1                      72      824....895[0m           0[0m
   ee-force_2                      72      896....967[0m           0[0m
   ee-force_3                      72      968...1039[0m           0[0m

constraint-sets:
   terrain-ee-motion_0             13        0.....12[0m           0[0m
   terrain-ee-motion_1             13       13.....25[0m           0[0m
   terrain-ee-motion_2             13       26.....38[0m           0[0m
   terrain-ee-motion_3             13       39.....51[0m           0[0m
   dynamic                        312       52....363[0m           0[0m
   splineacc-base-lin             147      364....510[0m           0[0m
   splineacc-base-ang             147      511....657[0m           0[0m
   rangeofmotion-0                192      658....849[0m           0[0m
   rangeofmotion-1                192      850...1041[0m           0[0m
   rangeofmotion-2                192     1042...1233[0m           0[0m
   rangeofmotion-3                192     1234...1425[0m           0[0m
   force-ee-force_0                60     1426...1485[0m           0[0m
   force-ee-force_1                60     1486...1545[0m           0[0m
   force-ee-force_2                60     1546...1605[0m           0[0m
   force-ee-force_3                60     1606...1665[0m           0[0m
   swing-ee-motion_0               16     1666...1681[0m           0[0m
   swing-ee-motion_1               16     1682...1697[0m           0[0m
   swing-ee-motion_2               16     1698...1713[0m           0[0m
   swing-ee-motion_3               16     1714...1729[0m           0[0m

cost-terms:

